%nprocshared=4
%mem=512MB
#p b3lyp/6-31g polar=(dcshg,cubic) cphf=rdfreq

Title Card Required

3 1
C    -0.680867    -2.094630    -0.250324
H    -1.409050    -2.886814    -0.363169
C    0.680867    -2.094631    -0.250320
H    1.409049    -2.886815    -0.363160
C    0.000000    0.000000    0.000000
H    0.000000    1.079138    0.054380
C    2.449488    -0.245856    -0.153072
H    3.141059    -1.040483    0.120677
H    2.531058    0.560652    0.575284
H    1.892249    0.865992    -1.931942
C    -2.449488    -0.245855    -0.153069
H    -2.531057    0.560653    0.575286
H    -3.141059    -1.040482    0.120681
H    -1.892253    0.865991    -1.931942
O    5.552093    -2.519842    -1.095719
O    -5.552088    -2.519843    -1.095721
S    4.686847    -3.464357    -1.867678
S    -4.686845    -3.464359    -1.867682
O    3.666278    -4.129395    -1.006435
O    4.099755    -2.835595    -3.084275
O    -4.099755    -2.835597    -3.084280
O    -3.666274    -4.129398    -1.006442
N    1.082068    -0.775138    -0.091933
N    -1.082068    -0.775138    -0.091932
Cl    -0.000002    3.518568    -1.817389
C    2.735092    0.273261    -1.575523
H    2.921007    -0.557191    -2.258070
C    -2.735095    0.273260    -1.575520
H    -2.921012    -0.557192    -2.258066
N    3.907163    1.154136    -1.584797
C    5.230773    0.762165    -1.480513
C    3.852755    2.487007    -1.682616
C    5.975307    1.899805    -1.522134
H    5.489536    -0.283120    -1.375133
H    2.943027    3.062391    -1.770026
H    7.040111    2.046221    -1.475444
N    -3.907167    1.154134    -1.584792
C    -5.230776    0.762162    -1.480503
C    -3.852761    2.487005    -1.682614
C    -5.975311    1.899802    -1.522121
H    -5.489537    -0.283123    -1.375120
H    -2.943035    3.062391    -1.770028
H    -7.040116    2.046216    -1.475425
N    5.097938    2.963318    -1.649639
N    -5.097945    2.963314    -1.649638
C    -5.782684    -4.772525    -2.451814
H    -6.547135    -4.323514    -3.084202
H    -5.193672    -5.490887    -3.020089
H    -6.239160    -5.253407    -1.588026
C    5.782684    -4.772524    -2.451812
H    5.193670    -5.490886    -3.020086
H    6.547134    -4.323514    -3.084202
H    6.239161    -5.253406    -1.588025
C    5.474056    4.378418    -1.735714
H    4.571208    4.974305    -1.843378
H    5.998752    4.668408    -0.826627
H    6.117713    4.528520    -2.601017
C    -5.474065    4.378413    -1.735722
H    -5.998764    4.668406    -0.826638
H    -4.571217    4.974301    -1.843386
H    -6.117720    4.528510    -2.601027

0.0828424  0.0723227  0.05695416  0.0536039  0.042812964  0.0347811  0.0293956  


