%nprocshared=4
%mem=512MB
#p b3lyp/6-31g polar=(dcshg,cubic) cphf=rdfreq

Title Card Required

3 1
C                 1[n][0]   1[n][1]    1[n][2]
H                 2[n][0]   2[n][1]    2[n][2]
C                 3[n][0]   3[n][1]    3[n][2]
H                 4[n][0]   4[n][1]    4[n][2]
C                 5[n][0]   5[n][1]    5[n][2]
H                 6[n][0]   6[n][1]    6[n][2]
C                 7[n][0]   7[n][1]    7[n][2]
H                 8[n][0]   8[n][1]    8[n][2]
H                 9[n][0]   9[n][1]    9[n][2]
H                 10[n][0]   10[n][1]    10[n][2]
C                 11[n][0]   11[n][1]    11[n][2]
H                 12[n][0]   12[n][1]    12[n][2]
H                 13[n][0]   13[n][1]    13[n][2]
H                 14[n][0]   14[n][1]    14[n][2]
N                 15[n][0]   15[n][1]    15[n][2]
N                 16[n][0]   16[n][1]    16[n][2]
C                 17[n][0]   17[n][1]    17[n][2]
H                 18[n][0]   18[n][1]    18[n][2]
C                 19[n][0]   19[n][1]    19[n][2]
H                 20[n][0]   20[n][1]    20[n][2]
O                 21[n][0]   21[n][1]    21[n][2]
O                 22[n][0]   22[n][1]    22[n][2]
N                 23[n][0]   23[n][1]    23[n][2]
N                 24[n][0]   24[n][1]    24[n][2]
H                 25[n][0]   25[n][1]    25[n][2]
H                 26[n][0]   26[n][1]    26[n][2]
C                 27[n][0]   27[n][1]    27[n][2]
H                 28[n][0]   28[n][1]    28[n][2]
H                 29[n][0]   29[n][1]    29[n][2]
C                 30[n][0]   30[n][1]    30[n][2]
H                 31[n][0]   31[n][1]    31[n][2]
H                 32[n][0]   32[n][1]    32[n][2]
C                 33[n][0]   33[n][1]    33[n][2]
H                 34[n][0]   34[n][1]    34[n][2]
H                 35[n][0]   35[n][1]    35[n][2]
C                 36[n][0]   36[n][1]    36[n][2]
H                 37[n][0]   37[n][1]    37[n][2]
H                 38[n][0]   38[n][1]    38[n][2]
C                 39[n][0]   39[n][1]    39[n][2]
H                 40[n][0]   40[n][1]    40[n][2]
H                 41[n][0]   41[n][1]    41[n][2]
C                 42[n][0]   42[n][1]    42[n][2]
H                 43[n][0]   43[n][1]    43[n][2]
H                 44[n][0]   44[n][1]    44[n][2]
C                 45[n][0]   45[n][1]    45[n][2]
H                 46[n][0]   46[n][1]    46[n][2]
H                 47[n][0]   47[n][1]    47[n][2]
C                 48[n][0]   48[n][1]    48[n][2]
H                 49[n][0]   49[n][1]    49[n][2]
H                 50[n][0]   50[n][1]    50[n][2]

0.0828424  0.0723227  0.05695416  0.0536039  0.042812964  0.0347811  0.0293956  


